
n_res = 4;
rcap = [17, 22, 163, 150];
rtype = [1, 1, 2, 2];
n_tasks = 100;
modes =  [{1, 2, 3}, {4, 5, 6}, {7, 8, 9}, {10, 11, 12}, {13, 14, 15}, {16, 17, 18}, {19, 20, 21}, {22, 23, 24}, {25, 26, 27}, {28, 29, 30}, {31, 32, 33}, {34, 35, 36}, {37, 38, 39}, {40, 41, 42}, {43, 44, 45}, {46, 47, 48}, {49, 50, 51}, {52, 53, 54}, {55, 56, 57}, {58, 59, 60}, {61, 62, 63}, {64, 65, 66}, {67, 68, 69}, {70, 71, 72}, {73, 74, 75}, {76, 77, 78}, {79, 80, 81}, {82, 83, 84}, {85, 86, 87}, {88, 89, 90}, {91, 92, 93}, {94, 95, 96}, {97, 98, 99}, {100, 101, 102}, {103, 104, 105}, {106, 107, 108}, {109, 110, 111}, {112, 113, 114}, {115, 116, 117}, {118, 119, 120}, {121, 122, 123}, {124, 125, 126}, {127, 128, 129}, {130, 131, 132}, {133, 134, 135}, {136, 137, 138}, {139, 140, 141}, {142, 143, 144}, {145, 146, 147}, {148, 149, 150}, {151, 152, 153}, {154, 155, 156}, {157, 158, 159}, {160, 161, 162}, {163, 164, 165}, {166, 167, 168}, {169, 170, 171}, {172, 173, 174}, {175, 176, 177}, {178, 179, 180}, {181, 182, 183}, {184, 185, 186}, {187, 188, 189}, {190, 191, 192}, {193, 194, 195}, {196, 197, 198}, {199, 200, 201}, {202, 203, 204}, {205, 206, 207}, {208, 209, 210}, {211, 212, 213}, {214, 215, 216}, {217, 218, 219}, {220, 221, 222}, {223, 224, 225}, {226, 227, 228}, {229, 230, 231}, {232, 233, 234}, {235, 236, 237}, {238, 239, 240}, {241, 242, 243}, {244, 245, 246}, {247, 248, 249}, {250, 251, 252}, {253, 254, 255}, {256, 257, 258}, {259, 260, 261}, {262, 263, 264}, {265, 266, 267}, {268, 269, 270}, {271, 272, 273}, {274, 275, 276}, {277, 278, 279}, {280, 281, 282}, {283, 284, 285}, {286, 287, 288}, {289, 290, 291}, {292, 293, 294}, {295, 296, 297}, {298, 299, 300}];
succ =  [{41, 33, 30, 26, 24, 22, 15, 10, 3}, {53, 44, 39, 36, 29, 28, 27, 26, 20, 12}, {53, 48, 46, 44, 42, 40, 39, 38, 32, 31, 29, 14}, {53, 52, 51, 45, 44, 41, 40, 38, 37, 36, 34, 33, 32, 31, 29, 28}, {63, 53, 48, 46, 43, 42, 41, 40, 39, 38, 36, 32, 31, 29, 27}, {63, 55, 53, 44, 43, 42, 38, 37, 32, 29, 27, 22}, {55, 53, 52, 44, 43, 40, 37, 33, 32, 31, 30, 29, 27}, {42, 39, 37, 36, 31, 10}, {70, 64, 57, 52, 51, 45, 42, 41, 39, 37, 36, 34, 33}, {63, 62, 61, 57, 55, 53, 51, 50, 47, 45, 44, 40, 38, 32}, {55, 53, 51, 46, 45, 38, 36, 33, 29}, {61, 58, 48, 47, 43, 41, 40, 37, 32, 30}, {64, 63, 62, 61, 57, 55, 50, 46, 44, 39, 38, 37, 32}, {63, 62, 59, 55, 50, 47, 43, 37, 36, 27}, {63, 62, 61, 58, 57, 52, 51, 50, 48, 47, 46, 43, 32}, {59, 53, 52, 49, 47, 45, 43, 41, 40, 38, 33}, {63, 60, 51, 49, 46, 43, 31, 30}, {61, 60, 59, 58, 57, 55, 53, 50, 47, 45, 44, 43, 37}, {64, 63, 61, 58, 53, 52, 49, 48, 45, 41, 34}, {62, 59, 57, 55, 50, 43, 40, 38, 37, 33}, {63, 58, 53, 47, 37, 34, 28}, {79, 70, 61, 60, 59, 51, 50, 46, 40, 36}, {83, 70, 67, 64, 61, 60, 59, 58, 53, 46, 43, 39}, {70, 68, 67, 66, 64, 62, 60, 59, 50, 43, 37}, {83, 64, 63, 60, 58, 55, 51, 45, 43}, {64, 63, 62, 58, 32}, {83, 70, 60, 58, 57, 56, 54, 51, 45}, {73, 68, 67, 64, 59, 57, 55, 50, 46}, {79, 70, 69, 68, 65, 59, 57, 50, 47}, {82, 76, 73, 70, 68, 67, 66, 65, 62, 57, 54, 50}, {98, 83, 81, 73, 72, 68, 65, 61, 59, 54, 47}, {83, 76, 68, 66, 65, 60, 59, 56, 49}, {83, 81, 73, 67, 66, 63, 61, 60, 58, 54}, {83, 72, 66, 60, 59, 43}, {99, 97, 83, 76, 73, 71, 70, 68, 67, 66, 61, 59, 56}, {83, 82, 78, 77, 76, 68, 49}, {98, 95, 83, 82, 81, 80, 78, 77, 75, 73, 72, 71, 54}, {99, 96, 81, 78, 77, 75, 71, 69, 67, 66, 58}, {100, 99, 98, 97, 96, 95, 94, 91, 90, 81, 80, 78, 76, 73, 72, 69, 68}, {99, 98, 96, 91, 90, 83, 80, 77, 73, 72, 69, 68, 64}, {97, 82, 81, 80, 73, 71, 56, 55}, {100, 99, 98, 97, 95, 82, 81, 78, 77, 76, 71, 62}, {98, 95, 94, 82, 81, 79, 76, 75, 73, 65, 54}, {99, 97, 95, 92, 91, 82, 80, 79, 77, 76, 75, 74, 72, 71, 70}, {100, 97, 95, 82, 77, 73, 72, 71, 69, 68, 66, 65}, {95, 81, 76, 75, 72, 71, 66, 54}, {100, 96, 91, 82, 78, 77, 74, 71, 67, 64}, {100, 99, 83, 80, 78, 77, 75, 71, 69, 56}, {98, 81, 73, 71, 67, 54}, {99, 97, 95, 92, 83, 80, 78, 74, 71, 56}, {99, 98, 97, 91, 81, 78, 76, 72, 67, 65}, {100, 99, 95, 93, 91, 75, 73, 71, 69, 66, 65}, {100, 96, 95, 93, 81, 75, 69, 65}, {100, 99, 97, 96, 92, 91, 90, 89, 85, 69}, {99, 96, 95, 91, 75, 65}, {98, 96, 94, 91, 90, 88, 86, 85, 84, 72}, {100, 97, 94, 93, 91, 90, 89, 87, 81, 74}, {100, 98, 92, 91, 89, 82, 76, 74}, {96, 91, 88, 87, 85, 82, 80, 77}, {97, 93, 92, 91, 90, 80, 74, 71}, {100, 87, 80, 78, 77, 74}, {91, 90, 85, 75, 74, 72}, {96, 91, 90, 89, 84, 78, 75}, {97, 95, 93, 89, 88, 76, 75}, {92, 90, 86, 85, 74}, {98, 92, 89, 87, 86, 84}, {95, 94, 86, 85, 80}, {92, 89, 88, 75}, {87, 86, 74}, {88, 87, 86, 85}, {86, 85, 84}, {93, 89, 87}, {87, 85, 84}, {88, 84}, {87, 86}, {86, 85}, {94, 89}, {93, 85}, {96, 88}, {84}, {92}, {90}, {84}, {}, {}, {}, {}, {}, {}, {}, {}, {}, {}, {}, {}, {}, {}, {}, {}, {}];
n_opt = 300;
dur = [1, 5, 8, 7, 9, 10, 2, 3, 5, 2, 3, 9, 5, 7, 9, 1, 3, 7, 5, 6, 7, 3, 9, 9, 3, 8, 10, 1, 1, 2, 3, 5, 6, 7, 8, 9, 3, 7, 8, 1, 2, 6, 3, 8, 10, 6, 8, 9, 3, 4, 5, 1, 4, 7, 3, 8, 9, 2, 3, 10, 1, 2, 3, 1, 2, 7, 1, 6, 7, 1, 5, 8, 1, 9, 10, 4, 6, 8, 4, 9, 10, 6, 8, 9, 2, 3, 6, 1, 2, 10, 2, 8, 9, 2, 5, 8, 3, 3, 8, 1, 7, 9, 4, 5, 9, 4, 6, 10, 2, 6, 10, 2, 6, 8, 3, 6, 9, 1, 4, 6, 1, 2, 6, 1, 5, 8, 1, 1, 4, 1, 8, 9, 1, 4, 8, 4, 8, 9, 2, 3, 3, 7, 7, 8, 2, 3, 6, 2, 3, 6, 2, 2, 7, 4, 5, 7, 1, 4, 5, 5, 5, 9, 5, 6, 10, 5, 8, 10, 2, 3, 7, 3, 6, 9, 1, 7, 10, 2, 4, 7, 6, 9, 10, 1, 7, 10, 4, 6, 10, 6, 8, 10, 1, 5, 8, 7, 8, 10, 1, 2, 8, 6, 7, 8, 3, 6, 10, 5, 5, 10, 7, 8, 9, 1, 6, 7, 1, 2, 3, 1, 5, 6, 2, 4, 5, 2, 4, 5, 2, 3, 5, 3, 7, 8, 2, 5, 9, 5, 6, 7, 5, 5, 10, 1, 6, 9, 4, 5, 9, 1, 3, 10, 3, 9, 10, 7, 8, 9, 1, 2, 5, 6, 8, 9, 1, 6, 9, 1, 4, 8, 3, 4, 5, 2, 8, 9, 2, 6, 8, 5, 7, 8, 1, 3, 10, 3, 6, 10, 2, 7, 10, 5, 6, 9, 1, 2, 7, 1, 6, 9];
rreq = [|4, 4, 3, 2, 2, 2, 2, 2, 2, 4, 4, 4, 3, 3, 1, 2, 2, 2, 3, 3, 3, 2, 1, 1, 1, 1, 1, 3, 3, 2, 2, 1, 1, 4, 2, 1, 2, 2, 2, 5, 4, 4, 3, 2, 1, 4, 4, 4, 5, 3, 1, 1, 1, 1, 4, 4, 4, 3, 3, 3, 3, 2, 2, 1, 1, 1, 5, 4, 3, 5, 2, 1, 4, 4, 4, 4, 3, 1, 1, 1, 1, 4, 4, 4, 5, 4, 2, 2, 1, 1, 5, 3, 3, 4, 3, 2, 2, 2, 2, 2, 1, 1, 4, 4, 3, 3, 3, 3, 4, 2, 2, 5, 5, 5, 3, 3, 3, 3, 2, 2, 3, 2, 2, 3, 2, 2, 4, 4, 4, 2, 1, 1, 4, 2, 1, 3, 2, 1, 3, 3, 3, 4, 4, 4, 1, 1, 1, 3, 2, 2, 4, 3, 3, 5, 4, 3, 3, 3, 3, 4, 3, 3, 5, 5, 5, 4, 3, 1, 5, 4, 4, 5, 5, 5, 1, 1, 1, 2, 2, 2, 2, 2, 2, 1, 1, 1, 4, 4, 2, 3, 2, 1, 1, 1, 1, 3, 3, 3, 5, 3, 2, 3, 2, 1, 4, 3, 2, 3, 3, 3, 2, 2, 1, 2, 1, 1, 4, 4, 3, 4, 3, 3, 4, 3, 3, 5, 3, 3, 3, 3, 3, 4, 4, 4, 5, 3, 3, 2, 1, 1, 1, 1, 1, 3, 3, 2, 3, 3, 3, 1, 1, 1, 3, 3, 3, 5, 4, 2, 4, 3, 3, 4, 4, 2, 2, 2, 2, 3, 2, 1, 5, 5, 5, 2, 1, 1, 5, 3, 2, 3, 1, 1, 4, 3, 1, 5, 5, 5, 2, 2, 2, 4, 4, 4, 2, 1, 1, 4, 4, 2
 |5, 4, 2, 2, 1, 1, 5, 4, 4, 5, 4, 3, 3, 2, 2, 4, 3, 2, 4, 3, 3, 5, 4, 3, 4, 3, 3, 4, 4, 4, 3, 3, 3, 4, 4, 4, 3, 2, 2, 5, 3, 2, 3, 2, 1, 5, 4, 4, 5, 4, 2, 4, 4, 3, 5, 3, 2, 4, 3, 1, 4, 3, 3, 4, 4, 4, 2, 2, 2, 4, 2, 2, 5, 5, 5, 1, 1, 1, 4, 3, 2, 4, 4, 2, 1, 1, 1, 4, 4, 4, 3, 3, 3, 5, 3, 2, 4, 2, 1, 3, 3, 2, 5, 3, 2, 2, 1, 1, 4, 3, 1, 3, 3, 3, 4, 2, 2, 5, 4, 3, 3, 3, 3, 3, 2, 1, 3, 3, 3, 2, 2, 2, 4, 4, 4, 3, 3, 1, 4, 2, 2, 4, 2, 1, 2, 2, 2, 5, 3, 2, 3, 2, 2, 3, 3, 1, 4, 4, 4, 4, 3, 2, 4, 4, 4, 4, 4, 3, 5, 5, 5, 4, 3, 3, 4, 4, 4, 5, 5, 5, 3, 2, 2, 3, 2, 1, 1, 1, 1, 2, 2, 2, 3, 2, 1, 5, 3, 1, 2, 2, 2, 4, 4, 4, 1, 1, 1, 4, 2, 2, 3, 3, 3, 3, 2, 2, 4, 4, 4, 3, 3, 2, 5, 3, 3, 4, 3, 3, 5, 4, 3, 3, 3, 3, 3, 2, 1, 2, 1, 1, 3, 2, 1, 4, 4, 4, 1, 1, 1, 2, 2, 2, 1, 1, 1, 2, 2, 2, 2, 2, 2, 4, 4, 4, 4, 3, 2, 2, 2, 1, 4, 3, 2, 5, 4, 2, 3, 2, 2, 3, 3, 2, 2, 2, 2, 3, 3, 3, 5, 4, 3, 1, 1, 1, 3, 3, 3, 5, 3, 2
 |0, 0, 0, 0, 0, 0, 0, 0, 0, 0, 0, 0, 4, 2, 2, 7, 4, 3, 8, 5, 0, 5, 0, 3, 6, 0, 3, 0, 4, 0, 0, 0, 0, 10, 7, 6, 0, 0, 7, 0, 7, 0, 0, 0, 2, 8, 7, 0, 0, 6, 4, 9, 0, 5, 3, 3, 1, 0, 0, 4, 6, 5, 4, 9, 7, 0, 6, 0, 2, 10, 7, 0, 7, 5, 4, 0, 0, 2, 7, 6, 3, 0, 7, 0, 9, 6, 4, 6, 5, 0, 0, 3, 0, 0, 6, 0, 0, 6, 4, 0, 7, 0, 0, 4, 0, 7, 0, 4, 7, 0, 1, 9, 0, 5, 0, 3, 2, 0, 2, 2, 2, 2, 1, 2, 0, 0, 0, 4, 0, 5, 3, 2, 8, 7, 2, 0, 0, 0, 0, 0, 4, 6, 0, 0, 0, 0, 0, 0, 0, 2, 4, 0, 0, 8, 7, 6, 0, 8, 7, 6, 0, 0, 0, 3, 0, 10, 0, 3, 0, 1, 0, 0, 0, 4, 0, 8, 4, 7, 3, 1, 0, 0, 3, 8, 0, 1, 0, 9, 0, 0, 5, 2, 8, 6, 6, 3, 2, 0, 9, 5, 0, 5, 0, 0, 6, 3, 0, 0, 1, 0, 0, 3, 1, 0, 3, 0, 9, 8, 0, 0, 4, 4, 2, 2, 0, 8, 3, 1, 0, 0, 0, 0, 0, 5, 8, 5, 3, 0, 0, 0, 1, 0, 1, 0, 4, 4, 7, 0, 2, 6, 3, 1, 3, 2, 0, 6, 6, 6, 9, 0, 0, 0, 0, 0, 0, 0, 0, 5, 0, 0, 0, 3, 1, 0, 0, 6, 0, 0, 0, 0, 0, 0, 10, 0, 0, 0, 0, 4, 5, 3, 2, 0, 0, 0, 10, 0, 0, 3, 0, 0
 |3, 1, 1, 5, 4, 3, 8, 7, 5, 7, 5, 3, 0, 0, 0, 0, 0, 0, 0, 0, 6, 0, 2, 0, 0, 6, 0, 9, 0, 7, 7, 6, 4, 0, 0, 0, 4, 3, 0, 5, 0, 2, 6, 4, 0, 0, 0, 1, 6, 0, 0, 0, 6, 0, 0, 0, 0, 3, 2, 0, 0, 0, 0, 0, 0, 2, 0, 3, 0, 0, 0, 2, 0, 0, 0, 5, 4, 0, 0, 0, 0, 9, 0, 3, 0, 0, 0, 0, 0, 7, 7, 0, 2, 6, 0, 3, 2, 0, 0, 5, 0, 1, 6, 0, 5, 0, 3, 0, 0, 1, 0, 0, 5, 0, 8, 0, 0, 9, 0, 0, 0, 0, 0, 0, 2, 1, 5, 0, 3, 0, 0, 0, 0, 0, 0, 7, 6, 3, 6, 6, 0, 0, 6, 1, 7, 5, 2, 2, 1, 0, 0, 8, 6, 0, 0, 0, 6, 0, 0, 0, 4, 3, 3, 0, 1, 0, 8, 0, 8, 0, 7, 3, 2, 0, 10, 0, 0, 0, 0, 0, 6, 5, 0, 0, 3, 0, 8, 0, 1, 9, 0, 0, 0, 0, 0, 0, 0, 1, 0, 0, 6, 0, 7, 6, 0, 0, 3, 10, 0, 4, 7, 0, 0, 5, 0, 5, 0, 0, 3, 8, 0, 0, 0, 0, 1, 0, 0, 0, 6, 5, 5, 5, 4, 0, 0, 0, 0, 8, 6, 5, 0, 4, 0, 9, 0, 0, 0, 1, 0, 0, 0, 0, 0, 0, 2, 0, 0, 0, 0, 6, 5, 8, 6, 3, 9, 9, 8, 0, 3, 1, 6, 0, 0, 10, 7, 0, 8, 6, 6, 5, 4, 3, 0, 1, 1, 7, 3, 0, 0, 0, 0, 9, 7, 6, 0, 2, 1, 0, 6, 6|];